p edge 30 81
v 1 7
v 2 3
v 3 1
v 4 5
v 5 7
v 6 10
v 7 3
v 8 2
v 9 9
v 10 3
v 11 6
v 12 9
v 13 1
v 14 10
v 15 2
v 16 10
v 17 5
v 18 9
v 19 9
v 20 4
v 21 5
v 22 10
v 23 5
v 24 5
v 25 5
v 26 1
v 27 8
v 28 9
v 29 7
v 30 1
e 1 6
e 1 16
e 1 18
e 1 19
e 1 24
e 1 25
e 2 5
e 2 22
e 2 28
e 3 4
e 3 7
e 3 9
e 3 15
e 3 20
e 3 26
e 4 7
e 4 8
e 4 9
e 4 15
e 4 20
e 4 22
e 4 26
e 5 10
e 5 14
e 5 28
e 6 16
e 6 18
e 6 19
e 6 24
e 7 8
e 7 9
e 7 11
e 7 15
e 7 22
e 7 26
e 7 30
e 8 9
e 8 11
e 8 12
e 8 20
e 8 22
e 8 27
e 8 29
e 8 30
e 9 11
e 9 15
e 9 20
e 9 22
e 9 26
e 9 27
e 10 14
e 10 28
e 11 12
e 11 20
e 11 22
e 11 27
e 11 29
e 11 30
e 12 29
e 12 30
e 13 21
e 13 29
e 14 28
e 15 26
e 16 17
e 16 18
e 16 23
e 16 25
e 17 23
e 17 25
e 17 28
e 18 19
e 18 24
e 18 25
e 19 24
e 20 27
e 21 27
e 22 30
e 23 25
e 27 29
e 29 30
